(set-info :smt-lib-version 2.6)
(set-logic QF_LIA)
(set-info :source |
Generated by: Nicolas Amat, Bernard Berthomieu, Silvano Dal Zilio, Didier Le Botlan
Generated on: 2022-03-07
Generator: SMPT
Application: Reachability query on the instance SharedMemory-PT-000010 from the Model Checking Contest 2021 using the SMPT model-checker
Target solver: z3
Publications: https://doi.org/10.1007/978-3-030-76983-3_9, http://mcc.lip6.fr/2021/results.php
|)
(set-info :license "https://creativecommons.org/licenses/by/4.0/")
(set-info :category "industrial")
(set-info :status sat)

(declare-const Memory_1 Int)
(assert (>= Memory_1 0))
(declare-const Ext_Bus Int)
(assert (>= Ext_Bus 0))
(declare-const Queue_10 Int)
(assert (>= Queue_10 0))
(declare-const Ext_Mem_Acc_10_1 Int)
(assert (>= Ext_Mem_Acc_10_1 0))
(declare-const Memory_2 Int)
(assert (>= Memory_2 0))
(declare-const Ext_Mem_Acc_10_2 Int)
(assert (>= Ext_Mem_Acc_10_2 0))
(declare-const Memory_3 Int)
(assert (>= Memory_3 0))
(declare-const Ext_Mem_Acc_10_3 Int)
(assert (>= Ext_Mem_Acc_10_3 0))
(declare-const Memory_4 Int)
(assert (>= Memory_4 0))
(declare-const Ext_Mem_Acc_10_4 Int)
(assert (>= Ext_Mem_Acc_10_4 0))
(declare-const Memory_5 Int)
(assert (>= Memory_5 0))
(declare-const Ext_Mem_Acc_10_5 Int)
(assert (>= Ext_Mem_Acc_10_5 0))
(declare-const Memory_6 Int)
(assert (>= Memory_6 0))
(declare-const Ext_Mem_Acc_10_6 Int)
(assert (>= Ext_Mem_Acc_10_6 0))
(declare-const Memory_7 Int)
(assert (>= Memory_7 0))
(declare-const Ext_Mem_Acc_10_7 Int)
(assert (>= Ext_Mem_Acc_10_7 0))
(declare-const Memory_8 Int)
(assert (>= Memory_8 0))
(declare-const Ext_Mem_Acc_10_8 Int)
(assert (>= Ext_Mem_Acc_10_8 0))
(declare-const Memory_9 Int)
(assert (>= Memory_9 0))
(declare-const Ext_Mem_Acc_10_9 Int)
(assert (>= Ext_Mem_Acc_10_9 0))
(declare-const Memory_10 Int)
(assert (>= Memory_10 0))
(declare-const Queue_1 Int)
(assert (>= Queue_1 0))
(declare-const Ext_Mem_Acc_1_10 Int)
(assert (>= Ext_Mem_Acc_1_10 0))
(declare-const Ext_Mem_Acc_1_2 Int)
(assert (>= Ext_Mem_Acc_1_2 0))
(declare-const Ext_Mem_Acc_1_3 Int)
(assert (>= Ext_Mem_Acc_1_3 0))
(declare-const Ext_Mem_Acc_1_4 Int)
(assert (>= Ext_Mem_Acc_1_4 0))
(declare-const Ext_Mem_Acc_1_5 Int)
(assert (>= Ext_Mem_Acc_1_5 0))
(declare-const Ext_Mem_Acc_1_6 Int)
(assert (>= Ext_Mem_Acc_1_6 0))
(declare-const Ext_Mem_Acc_1_7 Int)
(assert (>= Ext_Mem_Acc_1_7 0))
(declare-const Ext_Mem_Acc_1_8 Int)
(assert (>= Ext_Mem_Acc_1_8 0))
(declare-const Ext_Mem_Acc_1_9 Int)
(assert (>= Ext_Mem_Acc_1_9 0))
(declare-const Queue_2 Int)
(assert (>= Queue_2 0))
(declare-const Ext_Mem_Acc_2_1 Int)
(assert (>= Ext_Mem_Acc_2_1 0))
(declare-const Ext_Mem_Acc_2_10 Int)
(assert (>= Ext_Mem_Acc_2_10 0))
(declare-const Ext_Mem_Acc_2_3 Int)
(assert (>= Ext_Mem_Acc_2_3 0))
(declare-const Ext_Mem_Acc_2_4 Int)
(assert (>= Ext_Mem_Acc_2_4 0))
(declare-const Ext_Mem_Acc_2_5 Int)
(assert (>= Ext_Mem_Acc_2_5 0))
(declare-const Ext_Mem_Acc_2_6 Int)
(assert (>= Ext_Mem_Acc_2_6 0))
(declare-const Ext_Mem_Acc_2_7 Int)
(assert (>= Ext_Mem_Acc_2_7 0))
(declare-const Ext_Mem_Acc_2_8 Int)
(assert (>= Ext_Mem_Acc_2_8 0))
(declare-const Ext_Mem_Acc_2_9 Int)
(assert (>= Ext_Mem_Acc_2_9 0))
(declare-const Queue_3 Int)
(assert (>= Queue_3 0))
(declare-const Ext_Mem_Acc_3_1 Int)
(assert (>= Ext_Mem_Acc_3_1 0))
(declare-const Ext_Mem_Acc_3_10 Int)
(assert (>= Ext_Mem_Acc_3_10 0))
(declare-const Ext_Mem_Acc_3_2 Int)
(assert (>= Ext_Mem_Acc_3_2 0))
(declare-const Ext_Mem_Acc_3_4 Int)
(assert (>= Ext_Mem_Acc_3_4 0))
(declare-const Ext_Mem_Acc_3_5 Int)
(assert (>= Ext_Mem_Acc_3_5 0))
(declare-const Ext_Mem_Acc_3_6 Int)
(assert (>= Ext_Mem_Acc_3_6 0))
(declare-const Ext_Mem_Acc_3_7 Int)
(assert (>= Ext_Mem_Acc_3_7 0))
(declare-const Ext_Mem_Acc_3_8 Int)
(assert (>= Ext_Mem_Acc_3_8 0))
(declare-const Ext_Mem_Acc_3_9 Int)
(assert (>= Ext_Mem_Acc_3_9 0))
(declare-const Queue_4 Int)
(assert (>= Queue_4 0))
(declare-const Ext_Mem_Acc_4_1 Int)
(assert (>= Ext_Mem_Acc_4_1 0))
(declare-const Ext_Mem_Acc_4_10 Int)
(assert (>= Ext_Mem_Acc_4_10 0))
(declare-const Ext_Mem_Acc_4_2 Int)
(assert (>= Ext_Mem_Acc_4_2 0))
(declare-const Ext_Mem_Acc_4_3 Int)
(assert (>= Ext_Mem_Acc_4_3 0))
(declare-const Ext_Mem_Acc_4_5 Int)
(assert (>= Ext_Mem_Acc_4_5 0))
(declare-const Ext_Mem_Acc_4_6 Int)
(assert (>= Ext_Mem_Acc_4_6 0))
(declare-const Ext_Mem_Acc_4_7 Int)
(assert (>= Ext_Mem_Acc_4_7 0))
(declare-const Ext_Mem_Acc_4_8 Int)
(assert (>= Ext_Mem_Acc_4_8 0))
(declare-const Ext_Mem_Acc_4_9 Int)
(assert (>= Ext_Mem_Acc_4_9 0))
(declare-const Queue_5 Int)
(assert (>= Queue_5 0))
(declare-const Ext_Mem_Acc_5_1 Int)
(assert (>= Ext_Mem_Acc_5_1 0))
(declare-const Ext_Mem_Acc_5_10 Int)
(assert (>= Ext_Mem_Acc_5_10 0))
(declare-const Ext_Mem_Acc_5_2 Int)
(assert (>= Ext_Mem_Acc_5_2 0))
(declare-const Ext_Mem_Acc_5_3 Int)
(assert (>= Ext_Mem_Acc_5_3 0))
(declare-const Ext_Mem_Acc_5_4 Int)
(assert (>= Ext_Mem_Acc_5_4 0))
(declare-const Ext_Mem_Acc_5_6 Int)
(assert (>= Ext_Mem_Acc_5_6 0))
(declare-const Ext_Mem_Acc_5_7 Int)
(assert (>= Ext_Mem_Acc_5_7 0))
(declare-const Ext_Mem_Acc_5_8 Int)
(assert (>= Ext_Mem_Acc_5_8 0))
(declare-const Ext_Mem_Acc_5_9 Int)
(assert (>= Ext_Mem_Acc_5_9 0))
(declare-const Queue_6 Int)
(assert (>= Queue_6 0))
(declare-const Ext_Mem_Acc_6_1 Int)
(assert (>= Ext_Mem_Acc_6_1 0))
(declare-const Ext_Mem_Acc_6_10 Int)
(assert (>= Ext_Mem_Acc_6_10 0))
(declare-const Ext_Mem_Acc_6_2 Int)
(assert (>= Ext_Mem_Acc_6_2 0))
(declare-const Ext_Mem_Acc_6_3 Int)
(assert (>= Ext_Mem_Acc_6_3 0))
(declare-const Ext_Mem_Acc_6_4 Int)
(assert (>= Ext_Mem_Acc_6_4 0))
(declare-const Ext_Mem_Acc_6_5 Int)
(assert (>= Ext_Mem_Acc_6_5 0))
(declare-const Ext_Mem_Acc_6_7 Int)
(assert (>= Ext_Mem_Acc_6_7 0))
(declare-const Ext_Mem_Acc_6_8 Int)
(assert (>= Ext_Mem_Acc_6_8 0))
(declare-const Ext_Mem_Acc_6_9 Int)
(assert (>= Ext_Mem_Acc_6_9 0))
(declare-const Queue_7 Int)
(assert (>= Queue_7 0))
(declare-const Ext_Mem_Acc_7_1 Int)
(assert (>= Ext_Mem_Acc_7_1 0))
(declare-const Ext_Mem_Acc_7_10 Int)
(assert (>= Ext_Mem_Acc_7_10 0))
(declare-const Ext_Mem_Acc_7_2 Int)
(assert (>= Ext_Mem_Acc_7_2 0))
(declare-const Ext_Mem_Acc_7_3 Int)
(assert (>= Ext_Mem_Acc_7_3 0))
(declare-const Ext_Mem_Acc_7_4 Int)
(assert (>= Ext_Mem_Acc_7_4 0))
(declare-const Ext_Mem_Acc_7_5 Int)
(assert (>= Ext_Mem_Acc_7_5 0))
(declare-const Ext_Mem_Acc_7_6 Int)
(assert (>= Ext_Mem_Acc_7_6 0))
(declare-const Ext_Mem_Acc_7_8 Int)
(assert (>= Ext_Mem_Acc_7_8 0))
(declare-const Ext_Mem_Acc_7_9 Int)
(assert (>= Ext_Mem_Acc_7_9 0))
(declare-const Queue_8 Int)
(assert (>= Queue_8 0))
(declare-const Ext_Mem_Acc_8_1 Int)
(assert (>= Ext_Mem_Acc_8_1 0))
(declare-const Ext_Mem_Acc_8_10 Int)
(assert (>= Ext_Mem_Acc_8_10 0))
(declare-const Ext_Mem_Acc_8_2 Int)
(assert (>= Ext_Mem_Acc_8_2 0))
(declare-const Ext_Mem_Acc_8_3 Int)
(assert (>= Ext_Mem_Acc_8_3 0))
(declare-const Ext_Mem_Acc_8_4 Int)
(assert (>= Ext_Mem_Acc_8_4 0))
(declare-const Ext_Mem_Acc_8_5 Int)
(assert (>= Ext_Mem_Acc_8_5 0))
(declare-const Ext_Mem_Acc_8_6 Int)
(assert (>= Ext_Mem_Acc_8_6 0))
(declare-const Ext_Mem_Acc_8_7 Int)
(assert (>= Ext_Mem_Acc_8_7 0))
(declare-const Ext_Mem_Acc_8_9 Int)
(assert (>= Ext_Mem_Acc_8_9 0))
(declare-const Queue_9 Int)
(assert (>= Queue_9 0))
(declare-const Ext_Mem_Acc_9_1 Int)
(assert (>= Ext_Mem_Acc_9_1 0))
(declare-const Ext_Mem_Acc_9_10 Int)
(assert (>= Ext_Mem_Acc_9_10 0))
(declare-const Ext_Mem_Acc_9_2 Int)
(assert (>= Ext_Mem_Acc_9_2 0))
(declare-const Ext_Mem_Acc_9_3 Int)
(assert (>= Ext_Mem_Acc_9_3 0))
(declare-const Ext_Mem_Acc_9_4 Int)
(assert (>= Ext_Mem_Acc_9_4 0))
(declare-const Ext_Mem_Acc_9_5 Int)
(assert (>= Ext_Mem_Acc_9_5 0))
(declare-const Ext_Mem_Acc_9_6 Int)
(assert (>= Ext_Mem_Acc_9_6 0))
(declare-const Ext_Mem_Acc_9_7 Int)
(assert (>= Ext_Mem_Acc_9_7 0))
(declare-const Ext_Mem_Acc_9_8 Int)
(assert (>= Ext_Mem_Acc_9_8 0))
(declare-const Active_1 Int)
(assert (>= Active_1 0))
(declare-const OwnMemAcc_1 Int)
(assert (>= OwnMemAcc_1 0))
(declare-const Active_10 Int)
(assert (>= Active_10 0))
(declare-const OwnMemAcc_10 Int)
(assert (>= OwnMemAcc_10 0))
(declare-const Active_2 Int)
(assert (>= Active_2 0))
(declare-const OwnMemAcc_2 Int)
(assert (>= OwnMemAcc_2 0))
(declare-const Active_3 Int)
(assert (>= Active_3 0))
(declare-const OwnMemAcc_3 Int)
(assert (>= OwnMemAcc_3 0))
(declare-const Active_4 Int)
(assert (>= Active_4 0))
(declare-const OwnMemAcc_4 Int)
(assert (>= OwnMemAcc_4 0))
(declare-const Active_5 Int)
(assert (>= Active_5 0))
(declare-const OwnMemAcc_5 Int)
(assert (>= OwnMemAcc_5 0))
(declare-const Active_6 Int)
(assert (>= Active_6 0))
(declare-const OwnMemAcc_6 Int)
(assert (>= OwnMemAcc_6 0))
(declare-const Active_7 Int)
(assert (>= Active_7 0))
(declare-const OwnMemAcc_7 Int)
(assert (>= OwnMemAcc_7 0))
(declare-const Active_8 Int)
(assert (>= Active_8 0))
(declare-const OwnMemAcc_8 Int)
(assert (>= OwnMemAcc_8 0))
(declare-const Active_9 Int)
(assert (>= Active_9 0))
(declare-const OwnMemAcc_9 Int)
(assert (>= OwnMemAcc_9 0))

(declare-const a1 Int)
(assert (>= a1 0))
(declare-const a2 Int)
(assert (>= a2 0))
(declare-const a3 Int)
(assert (>= a3 0))
(declare-const a4 Int)
(assert (>= a4 0))
(declare-const a5 Int)
(assert (>= a5 0))
(declare-const a6 Int)
(assert (>= a6 0))
(declare-const a7 Int)
(assert (>= a7 0))
(declare-const a8 Int)
(assert (>= a8 0))
(declare-const a9 Int)
(assert (>= a9 0))
(declare-const a10 Int)
(assert (>= a10 0))
(declare-const a11 Int)
(assert (>= a11 0))
(declare-const a12 Int)
(assert (>= a12 0))
(declare-const a13 Int)
(assert (>= a13 0))
(declare-const a14 Int)
(assert (>= a14 0))
(declare-const a15 Int)
(assert (>= a15 0))
(declare-const a16 Int)
(assert (>= a16 0))
(declare-const a17 Int)
(assert (>= a17 0))
(declare-const a18 Int)
(assert (>= a18 0))
(declare-const a19 Int)
(assert (>= a19 0))
(declare-const a20 Int)
(assert (>= a20 0))
(declare-const a21 Int)
(assert (>= a21 0))
(declare-const a22 Int)
(assert (>= a22 0))
(declare-const a23 Int)
(assert (>= a23 0))
(declare-const a24 Int)
(assert (>= a24 0))
(declare-const a25 Int)
(assert (>= a25 0))
(declare-const a26 Int)
(assert (>= a26 0))
(declare-const a27 Int)
(assert (>= a27 0))
(declare-const a28 Int)
(assert (>= a28 0))
(declare-const a29 Int)
(assert (>= a29 0))
(declare-const a30 Int)
(assert (>= a30 0))
(declare-const a31 Int)
(assert (>= a31 0))
(declare-const a32 Int)
(assert (>= a32 0))
(declare-const a33 Int)
(assert (>= a33 0))
(declare-const a34 Int)
(assert (>= a34 0))
(declare-const a35 Int)
(assert (>= a35 0))
(declare-const a36 Int)
(assert (>= a36 0))
(declare-const a37 Int)
(assert (>= a37 0))
(declare-const a38 Int)
(assert (>= a38 0))
(declare-const a39 Int)
(assert (>= a39 0))
(declare-const a40 Int)
(assert (>= a40 0))
(declare-const a41 Int)
(assert (>= a41 0))
(declare-const a42 Int)
(assert (>= a42 0))
(declare-const a43 Int)
(assert (>= a43 0))
(declare-const a44 Int)
(assert (>= a44 0))
(declare-const a45 Int)
(assert (>= a45 0))
(declare-const a46 Int)
(assert (>= a46 0))
(declare-const a47 Int)
(assert (>= a47 0))
(declare-const a48 Int)
(assert (>= a48 0))
(declare-const a49 Int)
(assert (>= a49 0))
(declare-const a50 Int)
(assert (>= a50 0))
(declare-const a51 Int)
(assert (>= a51 0))
(declare-const a52 Int)
(assert (>= a52 0))
(declare-const a53 Int)
(assert (>= a53 0))
(declare-const a54 Int)
(assert (>= a54 0))
(declare-const a55 Int)
(assert (>= a55 0))
(declare-const a56 Int)
(assert (>= a56 0))
(declare-const a57 Int)
(assert (>= a57 0))
(declare-const a58 Int)
(assert (>= a58 0))
(declare-const a59 Int)
(assert (>= a59 0))
(declare-const a60 Int)
(assert (>= a60 0))
(declare-const a61 Int)
(assert (>= a61 0))
(declare-const a62 Int)
(assert (>= a62 0))
(declare-const a63 Int)
(assert (>= a63 0))
(declare-const a64 Int)
(assert (>= a64 0))
(declare-const a65 Int)
(assert (>= a65 0))
(declare-const a66 Int)
(assert (>= a66 0))
(declare-const a67 Int)
(assert (>= a67 0))
(declare-const a68 Int)
(assert (>= a68 0))
(declare-const a69 Int)
(assert (>= a69 0))
(declare-const a70 Int)
(assert (>= a70 0))
(declare-const a71 Int)
(assert (>= a71 0))
(declare-const a72 Int)
(assert (>= a72 0))
(declare-const a73 Int)
(assert (>= a73 0))
(declare-const a74 Int)
(assert (>= a74 0))
(declare-const a75 Int)
(assert (>= a75 0))
(declare-const a76 Int)
(assert (>= a76 0))
(declare-const a77 Int)
(assert (>= a77 0))
(declare-const a78 Int)
(assert (>= a78 0))
(declare-const a79 Int)
(assert (>= a79 0))
(declare-const a80 Int)
(assert (>= a80 0))
(declare-const a81 Int)
(assert (>= a81 0))
(declare-const a82 Int)
(assert (>= a82 0))
(declare-const a83 Int)
(assert (>= a83 0))
(declare-const a84 Int)
(assert (>= a84 0))
(declare-const a85 Int)
(assert (>= a85 0))
(declare-const a86 Int)
(assert (>= a86 0))
(declare-const a87 Int)
(assert (>= a87 0))
(declare-const a88 Int)
(assert (>= a88 0))
(declare-const a89 Int)
(assert (>= a89 0))
(declare-const a90 Int)
(assert (>= a90 0))
(declare-const a91 Int)
(assert (>= a91 0))
(declare-const a92 Int)
(assert (>= a92 0))
(declare-const a93 Int)
(assert (>= a93 0))
(declare-const a94 Int)
(assert (>= a94 0))
(declare-const a95 Int)
(assert (>= a95 0))
(declare-const a96 Int)
(assert (>= a96 0))
(declare-const a97 Int)
(assert (>= a97 0))
(declare-const a98 Int)
(assert (>= a98 0))
(declare-const a99 Int)
(assert (>= a99 0))
(declare-const a100 Int)
(assert (>= a100 0))
(declare-const a101 Int)
(assert (>= a101 0))
(declare-const a102 Int)
(assert (>= a102 0))
(declare-const a103 Int)
(assert (>= a103 0))
(declare-const a104 Int)
(assert (>= a104 0))
(declare-const a105 Int)
(assert (>= a105 0))
(declare-const a106 Int)
(assert (>= a106 0))
(declare-const a107 Int)
(assert (>= a107 0))
(declare-const a108 Int)
(assert (>= a108 0))
(declare-const a109 Int)
(assert (>= a109 0))
(declare-const a110 Int)
(assert (>= a110 0))
(declare-const a111 Int)
(assert (>= a111 0))
(declare-const a112 Int)
(assert (>= a112 0))
(declare-const a113 Int)
(assert (>= a113 0))
(declare-const a114 Int)
(assert (>= a114 0))
(declare-const a115 Int)
(assert (>= a115 0))
(declare-const a116 Int)
(assert (>= a116 0))
(declare-const a117 Int)
(assert (>= a117 0))
(declare-const a118 Int)
(assert (>= a118 0))
(declare-const a119 Int)
(assert (>= a119 0))
(declare-const a120 Int)
(assert (>= a120 0))
(declare-const a121 Int)
(assert (>= a121 0))
(declare-const a122 Int)
(assert (>= a122 0))
(declare-const a123 Int)
(assert (>= a123 0))
(declare-const a124 Int)
(assert (>= a124 0))
(declare-const a125 Int)
(assert (>= a125 0))
(declare-const a126 Int)
(assert (>= a126 0))
(declare-const a127 Int)
(assert (>= a127 0))
(declare-const a128 Int)
(assert (>= a128 0))
(declare-const a129 Int)
(assert (>= a129 0))
(declare-const a130 Int)
(assert (>= a130 0))
(declare-const a131 Int)
(assert (>= a131 0))
(declare-const a132 Int)
(assert (>= a132 0))
(declare-const a133 Int)
(assert (>= a133 0))
(declare-const a134 Int)
(assert (>= a134 0))
(declare-const a135 Int)
(assert (>= a135 0))
(declare-const a136 Int)
(assert (>= a136 0))
(declare-const a137 Int)
(assert (>= a137 0))
(declare-const a138 Int)
(assert (>= a138 0))
(declare-const a139 Int)
(assert (>= a139 0))
(declare-const a140 Int)
(assert (>= a140 0))
(declare-const a141 Int)
(assert (>= a141 0))
(declare-const a142 Int)
(assert (>= a142 0))
(declare-const a143 Int)
(assert (>= a143 0))
(declare-const a144 Int)
(assert (>= a144 0))
(declare-const a145 Int)
(assert (>= a145 0))
(declare-const a146 Int)
(assert (>= a146 0))
(declare-const a147 Int)
(assert (>= a147 0))
(declare-const a148 Int)
(assert (>= a148 0))
(declare-const a149 Int)
(assert (>= a149 0))
(declare-const a150 Int)
(assert (>= a150 0))
(declare-const a151 Int)
(assert (>= a151 0))
(declare-const a152 Int)
(assert (>= a152 0))
(declare-const a153 Int)
(assert (>= a153 0))
(declare-const a154 Int)
(assert (>= a154 0))
(declare-const a155 Int)
(assert (>= a155 0))
(declare-const a156 Int)
(assert (>= a156 0))
(declare-const a157 Int)
(assert (>= a157 0))
(declare-const a158 Int)
(assert (>= a158 0))
(declare-const a159 Int)
(assert (>= a159 0))
(declare-const a160 Int)
(assert (>= a160 0))
(declare-const a161 Int)
(assert (>= a161 0))
(declare-const a162 Int)
(assert (>= a162 0))
(declare-const a163 Int)
(assert (>= a163 0))
(declare-const a164 Int)
(assert (>= a164 0))
(declare-const a165 Int)
(assert (>= a165 0))
(declare-const a166 Int)
(assert (>= a166 0))
(declare-const a167 Int)
(assert (>= a167 0))
(declare-const a168 Int)
(assert (>= a168 0))
(declare-const a169 Int)
(assert (>= a169 0))
(declare-const a170 Int)
(assert (>= a170 0))
(declare-const a171 Int)
(assert (>= a171 0))
(declare-const a172 Int)
(assert (>= a172 0))
(declare-const a173 Int)
(assert (>= a173 0))
(declare-const a174 Int)
(assert (>= a174 0))
(declare-const a175 Int)
(assert (>= a175 0))
(declare-const a176 Int)
(assert (>= a176 0))
(declare-const a177 Int)
(assert (>= a177 0))
(declare-const a178 Int)
(assert (>= a178 0))
(declare-const a179 Int)
(assert (>= a179 0))
(declare-const a180 Int)
(assert (>= a180 0))
(declare-const a181 Int)
(assert (>= a181 0))
(declare-const a182 Int)
(assert (>= a182 0))
(declare-const a183 Int)
(assert (>= a183 0))
(declare-const a184 Int)
(assert (>= a184 0))
(declare-const a185 Int)
(assert (>= a185 0))
(declare-const a186 Int)
(assert (>= a186 0))
(declare-const a187 Int)
(assert (>= a187 0))
(declare-const a188 Int)
(assert (>= a188 0))
(declare-const a189 Int)
(assert (>= a189 0))
(declare-const a190 Int)
(assert (>= a190 0))
(declare-const a191 Int)
(assert (>= a191 0))
(declare-const a192 Int)
(assert (>= a192 0))
(declare-const a193 Int)
(assert (>= a193 0))
(declare-const a194 Int)
(assert (>= a194 0))
(declare-const a195 Int)
(assert (>= a195 0))
(declare-const a196 Int)
(assert (>= a196 0))
(declare-const a197 Int)
(assert (>= a197 0))
(declare-const a198 Int)
(assert (>= a198 0))
(declare-const a199 Int)
(assert (>= a199 0))
(declare-const a200 Int)
(assert (>= a200 0))
(declare-const a201 Int)
(assert (>= a201 0))
(declare-const a202 Int)
(assert (>= a202 0))
(declare-const a203 Int)
(assert (>= a203 0))
(declare-const a204 Int)
(assert (>= a204 0))
(declare-const a205 Int)
(assert (>= a205 0))
(declare-const a206 Int)
(assert (>= a206 0))
(declare-const a207 Int)
(assert (>= a207 0))
(declare-const a208 Int)
(assert (>= a208 0))
(declare-const a209 Int)
(assert (>= a209 0))
(declare-const a210 Int)
(assert (>= a210 0))
(declare-const a211 Int)
(assert (>= a211 0))
(declare-const a212 Int)
(assert (>= a212 0))
(declare-const a213 Int)
(assert (>= a213 0))
(declare-const a214 Int)
(assert (>= a214 0))
(declare-const a215 Int)
(assert (>= a215 0))
(declare-const a216 Int)
(assert (>= a216 0))
(declare-const a217 Int)
(assert (>= a217 0))
(declare-const a218 Int)
(assert (>= a218 0))
(declare-const a219 Int)
(assert (>= a219 0))
(declare-const a220 Int)
(assert (>= a220 0))
(declare-const a221 Int)
(assert (>= a221 0))
(declare-const a222 Int)
(assert (>= a222 0))
(declare-const a223 Int)
(assert (>= a223 0))
(declare-const a224 Int)
(assert (>= a224 0))
(declare-const a225 Int)
(assert (>= a225 0))
(declare-const a226 Int)
(assert (>= a226 0))
(declare-const a227 Int)
(assert (>= a227 0))
(declare-const a228 Int)
(assert (>= a228 0))
(declare-const a229 Int)
(assert (>= a229 0))
(declare-const a230 Int)
(assert (>= a230 0))
(declare-const a231 Int)
(assert (>= a231 0))
(declare-const a232 Int)
(assert (>= a232 0))
(declare-const a233 Int)
(assert (>= a233 0))
(declare-const a234 Int)
(assert (>= a234 0))
(declare-const a235 Int)
(assert (>= a235 0))
(declare-const a236 Int)
(assert (>= a236 0))
(declare-const a237 Int)
(assert (>= a237 0))
(declare-const a238 Int)
(assert (>= a238 0))
(declare-const a239 Int)
(assert (>= a239 0))
(declare-const a240 Int)
(assert (>= a240 0))
(declare-const a241 Int)
(assert (>= a241 0))
(declare-const a242 Int)
(assert (>= a242 0))
(declare-const a243 Int)
(assert (>= a243 0))
(declare-const a244 Int)
(assert (>= a244 0))
(declare-const a245 Int)
(assert (>= a245 0))
(declare-const a246 Int)
(assert (>= a246 0))
(declare-const a247 Int)
(assert (>= a247 0))
(declare-const a248 Int)
(assert (>= a248 0))
(declare-const a249 Int)
(assert (>= a249 0))
(declare-const a250 Int)
(assert (>= a250 0))
(declare-const a251 Int)
(assert (>= a251 0))
(declare-const a252 Int)
(assert (>= a252 0))
(declare-const a253 Int)
(assert (>= a253 0))
(declare-const a254 Int)
(assert (>= a254 0))
(declare-const a255 Int)
(assert (>= a255 0))
(declare-const a256 Int)
(assert (>= a256 0))
(declare-const a257 Int)
(assert (>= a257 0))
(declare-const a258 Int)
(assert (>= a258 0))
(declare-const a259 Int)
(assert (>= a259 0))
(declare-const a260 Int)
(assert (>= a260 0))
(declare-const a261 Int)
(assert (>= a261 0))
(declare-const a262 Int)
(assert (>= a262 0))
(declare-const a263 Int)
(assert (>= a263 0))
(declare-const a264 Int)
(assert (>= a264 0))
(declare-const a265 Int)
(assert (>= a265 0))
(declare-const a266 Int)
(assert (>= a266 0))
(declare-const a267 Int)
(assert (>= a267 0))
(declare-const a268 Int)
(assert (>= a268 0))
(declare-const a269 Int)
(assert (>= a269 0))
(declare-const a270 Int)
(assert (>= a270 0))
(declare-const a271 Int)
(assert (>= a271 0))
(declare-const a272 Int)
(assert (>= a272 0))
(declare-const a273 Int)
(assert (>= a273 0))
(declare-const a274 Int)
(assert (>= a274 0))
(declare-const a275 Int)
(assert (>= a275 0))
(declare-const a276 Int)
(assert (>= a276 0))
(declare-const a277 Int)
(assert (>= a277 0))
(declare-const a278 Int)
(assert (>= a278 0))
(declare-const a279 Int)
(assert (>= a279 0))
(declare-const a280 Int)
(assert (>= a280 0))
(declare-const a281 Int)
(assert (>= a281 0))
(declare-const a282 Int)
(assert (>= a282 0))
(declare-const a283 Int)
(assert (>= a283 0))
(declare-const a284 Int)
(assert (>= a284 0))
(declare-const a285 Int)
(assert (>= a285 0))
(declare-const a286 Int)
(assert (>= a286 0))
(declare-const a287 Int)
(assert (>= a287 0))
(declare-const a288 Int)
(assert (>= a288 0))
(declare-const a289 Int)
(assert (>= a289 0))
(declare-const a290 Int)
(assert (>= a290 0))

(assert (= a1 (+ OwnMemAcc_1 Active_1)))
(assert (= a2 (+ Queue_1 a1)))
(assert (= a3 (+ OwnMemAcc_10 Active_10)))
(assert (= a4 (+ Queue_10 a3)))
(assert (= a5 (+ OwnMemAcc_2 Active_2)))
(assert (= a6 (+ Queue_2 a5)))
(assert (= a7 (+ OwnMemAcc_3 Active_3)))
(assert (= a8 (+ Queue_3 a7)))
(assert (= a9 (+ OwnMemAcc_4 Active_4)))
(assert (= a10 (+ Queue_4 a9)))
(assert (= a11 (+ OwnMemAcc_5 Active_5)))
(assert (= a12 (+ Queue_5 a11)))
(assert (= a13 (+ OwnMemAcc_6 Active_6)))
(assert (= a14 (+ Queue_6 a13)))
(assert (= a15 (+ OwnMemAcc_7 Active_7)))
(assert (= a16 (+ Queue_7 a15)))
(assert (= a17 (+ OwnMemAcc_8 Active_8)))
(assert (= a18 (+ Queue_8 a17)))
(assert (= a19 (+ OwnMemAcc_9 Active_9)))
(assert (= a20 (+ Queue_9 a19)))
(assert (= a21 (+ a4 Ext_Mem_Acc_10_1)))
(assert (= a22 (+ Ext_Bus Ext_Mem_Acc_10_1)))
(assert (= a23 (+ Memory_1 Ext_Mem_Acc_10_1)))
(assert (= a24 (+ a21 Ext_Mem_Acc_10_2)))
(assert (= a25 (+ a22 Ext_Mem_Acc_10_2)))
(assert (= a26 (+ Memory_2 Ext_Mem_Acc_10_2)))
(assert (= a27 (+ a24 Ext_Mem_Acc_10_3)))
(assert (= a28 (+ a25 Ext_Mem_Acc_10_3)))
(assert (= a29 (+ Memory_3 Ext_Mem_Acc_10_3)))
(assert (= a30 (+ a27 Ext_Mem_Acc_10_4)))
(assert (= a31 (+ a28 Ext_Mem_Acc_10_4)))
(assert (= a32 (+ Memory_4 Ext_Mem_Acc_10_4)))
(assert (= a33 (+ a30 Ext_Mem_Acc_10_5)))
(assert (= a34 (+ a31 Ext_Mem_Acc_10_5)))
(assert (= a35 (+ Memory_5 Ext_Mem_Acc_10_5)))
(assert (= a36 (+ a33 Ext_Mem_Acc_10_6)))
(assert (= a37 (+ a34 Ext_Mem_Acc_10_6)))
(assert (= a38 (+ Memory_6 Ext_Mem_Acc_10_6)))
(assert (= a39 (+ a36 Ext_Mem_Acc_10_7)))
(assert (= a40 (+ a37 Ext_Mem_Acc_10_7)))
(assert (= a41 (+ Memory_7 Ext_Mem_Acc_10_7)))
(assert (= a42 (+ a39 Ext_Mem_Acc_10_8)))
(assert (= a43 (+ a40 Ext_Mem_Acc_10_8)))
(assert (= a44 (+ Memory_8 Ext_Mem_Acc_10_8)))
(assert (= a45 (+ a42 Ext_Mem_Acc_10_9)))
(assert (= a46 (+ a43 Ext_Mem_Acc_10_9)))
(assert (= a47 (+ Memory_9 Ext_Mem_Acc_10_9)))
(assert (= a48 (+ a2 Ext_Mem_Acc_1_10)))
(assert (= a49 (+ a46 Ext_Mem_Acc_1_10)))
(assert (= a50 (+ Memory_10 Ext_Mem_Acc_1_10)))
(assert (= a51 (+ a48 Ext_Mem_Acc_1_2)))
(assert (= a52 (+ a49 Ext_Mem_Acc_1_2)))
(assert (= a53 (+ a26 Ext_Mem_Acc_1_2)))
(assert (= a54 (+ a51 Ext_Mem_Acc_1_3)))
(assert (= a55 (+ a52 Ext_Mem_Acc_1_3)))
(assert (= a56 (+ a29 Ext_Mem_Acc_1_3)))
(assert (= a57 (+ a54 Ext_Mem_Acc_1_4)))
(assert (= a58 (+ a55 Ext_Mem_Acc_1_4)))
(assert (= a59 (+ a32 Ext_Mem_Acc_1_4)))
(assert (= a60 (+ a57 Ext_Mem_Acc_1_5)))
(assert (= a61 (+ a58 Ext_Mem_Acc_1_5)))
(assert (= a62 (+ a35 Ext_Mem_Acc_1_5)))
(assert (= a63 (+ a60 Ext_Mem_Acc_1_6)))
(assert (= a64 (+ a61 Ext_Mem_Acc_1_6)))
(assert (= a65 (+ a38 Ext_Mem_Acc_1_6)))
(assert (= a66 (+ a63 Ext_Mem_Acc_1_7)))
(assert (= a67 (+ a64 Ext_Mem_Acc_1_7)))
(assert (= a68 (+ a41 Ext_Mem_Acc_1_7)))
(assert (= a69 (+ a66 Ext_Mem_Acc_1_8)))
(assert (= a70 (+ a67 Ext_Mem_Acc_1_8)))
(assert (= a71 (+ a44 Ext_Mem_Acc_1_8)))
(assert (= a72 (+ a69 Ext_Mem_Acc_1_9)))
(assert (= a73 (+ a70 Ext_Mem_Acc_1_9)))
(assert (= a74 (+ a47 Ext_Mem_Acc_1_9)))
(assert (= a75 (+ a6 Ext_Mem_Acc_2_1)))
(assert (= a76 (+ a73 Ext_Mem_Acc_2_1)))
(assert (= a77 (+ a23 Ext_Mem_Acc_2_1)))
(assert (= a78 (+ a75 Ext_Mem_Acc_2_10)))
(assert (= a79 (+ a76 Ext_Mem_Acc_2_10)))
(assert (= a80 (+ a50 Ext_Mem_Acc_2_10)))
(assert (= a81 (+ a78 Ext_Mem_Acc_2_3)))
(assert (= a82 (+ a79 Ext_Mem_Acc_2_3)))
(assert (= a83 (+ a56 Ext_Mem_Acc_2_3)))
(assert (= a84 (+ a81 Ext_Mem_Acc_2_4)))
(assert (= a85 (+ a82 Ext_Mem_Acc_2_4)))
(assert (= a86 (+ a59 Ext_Mem_Acc_2_4)))
(assert (= a87 (+ a84 Ext_Mem_Acc_2_5)))
(assert (= a88 (+ a85 Ext_Mem_Acc_2_5)))
(assert (= a89 (+ a62 Ext_Mem_Acc_2_5)))
(assert (= a90 (+ a87 Ext_Mem_Acc_2_6)))
(assert (= a91 (+ a88 Ext_Mem_Acc_2_6)))
(assert (= a92 (+ a65 Ext_Mem_Acc_2_6)))
(assert (= a93 (+ a90 Ext_Mem_Acc_2_7)))
(assert (= a94 (+ a91 Ext_Mem_Acc_2_7)))
(assert (= a95 (+ a68 Ext_Mem_Acc_2_7)))
(assert (= a96 (+ a93 Ext_Mem_Acc_2_8)))
(assert (= a97 (+ a94 Ext_Mem_Acc_2_8)))
(assert (= a98 (+ a71 Ext_Mem_Acc_2_8)))
(assert (= a99 (+ a96 Ext_Mem_Acc_2_9)))
(assert (= a100 (+ a97 Ext_Mem_Acc_2_9)))
(assert (= a101 (+ a74 Ext_Mem_Acc_2_9)))
(assert (= a102 (+ a8 Ext_Mem_Acc_3_1)))
(assert (= a103 (+ a100 Ext_Mem_Acc_3_1)))
(assert (= a104 (+ a77 Ext_Mem_Acc_3_1)))
(assert (= a105 (+ a102 Ext_Mem_Acc_3_10)))
(assert (= a106 (+ a103 Ext_Mem_Acc_3_10)))
(assert (= a107 (+ a80 Ext_Mem_Acc_3_10)))
(assert (= a108 (+ a105 Ext_Mem_Acc_3_2)))
(assert (= a109 (+ a106 Ext_Mem_Acc_3_2)))
(assert (= a110 (+ a53 Ext_Mem_Acc_3_2)))
(assert (= a111 (+ a108 Ext_Mem_Acc_3_4)))
(assert (= a112 (+ a109 Ext_Mem_Acc_3_4)))
(assert (= a113 (+ a86 Ext_Mem_Acc_3_4)))
(assert (= a114 (+ a111 Ext_Mem_Acc_3_5)))
(assert (= a115 (+ a112 Ext_Mem_Acc_3_5)))
(assert (= a116 (+ a89 Ext_Mem_Acc_3_5)))
(assert (= a117 (+ a114 Ext_Mem_Acc_3_6)))
(assert (= a118 (+ a115 Ext_Mem_Acc_3_6)))
(assert (= a119 (+ a92 Ext_Mem_Acc_3_6)))
(assert (= a120 (+ a117 Ext_Mem_Acc_3_7)))
(assert (= a121 (+ a118 Ext_Mem_Acc_3_7)))
(assert (= a122 (+ a95 Ext_Mem_Acc_3_7)))
(assert (= a123 (+ a120 Ext_Mem_Acc_3_8)))
(assert (= a124 (+ a121 Ext_Mem_Acc_3_8)))
(assert (= a125 (+ a98 Ext_Mem_Acc_3_8)))
(assert (= a126 (+ a123 Ext_Mem_Acc_3_9)))
(assert (= a127 (+ a124 Ext_Mem_Acc_3_9)))
(assert (= a128 (+ a101 Ext_Mem_Acc_3_9)))
(assert (= a129 (+ a10 Ext_Mem_Acc_4_1)))
(assert (= a130 (+ a127 Ext_Mem_Acc_4_1)))
(assert (= a131 (+ a104 Ext_Mem_Acc_4_1)))
(assert (= a132 (+ a129 Ext_Mem_Acc_4_10)))
(assert (= a133 (+ a130 Ext_Mem_Acc_4_10)))
(assert (= a134 (+ a107 Ext_Mem_Acc_4_10)))
(assert (= a135 (+ a132 Ext_Mem_Acc_4_2)))
(assert (= a136 (+ a133 Ext_Mem_Acc_4_2)))
(assert (= a137 (+ a110 Ext_Mem_Acc_4_2)))
(assert (= a138 (+ a135 Ext_Mem_Acc_4_3)))
(assert (= a139 (+ a136 Ext_Mem_Acc_4_3)))
(assert (= a140 (+ a83 Ext_Mem_Acc_4_3)))
(assert (= a141 (+ a138 Ext_Mem_Acc_4_5)))
(assert (= a142 (+ a139 Ext_Mem_Acc_4_5)))
(assert (= a143 (+ a116 Ext_Mem_Acc_4_5)))
(assert (= a144 (+ a141 Ext_Mem_Acc_4_6)))
(assert (= a145 (+ a142 Ext_Mem_Acc_4_6)))
(assert (= a146 (+ a119 Ext_Mem_Acc_4_6)))
(assert (= a147 (+ a144 Ext_Mem_Acc_4_7)))
(assert (= a148 (+ a145 Ext_Mem_Acc_4_7)))
(assert (= a149 (+ a122 Ext_Mem_Acc_4_7)))
(assert (= a150 (+ a147 Ext_Mem_Acc_4_8)))
(assert (= a151 (+ a148 Ext_Mem_Acc_4_8)))
(assert (= a152 (+ a125 Ext_Mem_Acc_4_8)))
(assert (= a153 (+ a150 Ext_Mem_Acc_4_9)))
(assert (= a154 (+ a151 Ext_Mem_Acc_4_9)))
(assert (= a155 (+ a128 Ext_Mem_Acc_4_9)))
(assert (= a156 (+ a12 Ext_Mem_Acc_5_1)))
(assert (= a157 (+ a154 Ext_Mem_Acc_5_1)))
(assert (= a158 (+ a131 Ext_Mem_Acc_5_1)))
(assert (= a159 (+ a156 Ext_Mem_Acc_5_10)))
(assert (= a160 (+ a157 Ext_Mem_Acc_5_10)))
(assert (= a161 (+ a134 Ext_Mem_Acc_5_10)))
(assert (= a162 (+ a159 Ext_Mem_Acc_5_2)))
(assert (= a163 (+ a160 Ext_Mem_Acc_5_2)))
(assert (= a164 (+ a137 Ext_Mem_Acc_5_2)))
(assert (= a165 (+ a162 Ext_Mem_Acc_5_3)))
(assert (= a166 (+ a163 Ext_Mem_Acc_5_3)))
(assert (= a167 (+ a140 Ext_Mem_Acc_5_3)))
(assert (= a168 (+ a165 Ext_Mem_Acc_5_4)))
(assert (= a169 (+ a166 Ext_Mem_Acc_5_4)))
(assert (= a170 (+ a113 Ext_Mem_Acc_5_4)))
(assert (= a171 (+ a168 Ext_Mem_Acc_5_6)))
(assert (= a172 (+ a169 Ext_Mem_Acc_5_6)))
(assert (= a173 (+ a146 Ext_Mem_Acc_5_6)))
(assert (= a174 (+ a171 Ext_Mem_Acc_5_7)))
(assert (= a175 (+ a172 Ext_Mem_Acc_5_7)))
(assert (= a176 (+ a149 Ext_Mem_Acc_5_7)))
(assert (= a177 (+ a174 Ext_Mem_Acc_5_8)))
(assert (= a178 (+ a175 Ext_Mem_Acc_5_8)))
(assert (= a179 (+ a152 Ext_Mem_Acc_5_8)))
(assert (= a180 (+ a177 Ext_Mem_Acc_5_9)))
(assert (= a181 (+ a178 Ext_Mem_Acc_5_9)))
(assert (= a182 (+ a155 Ext_Mem_Acc_5_9)))
(assert (= a183 (+ a14 Ext_Mem_Acc_6_1)))
(assert (= a184 (+ a181 Ext_Mem_Acc_6_1)))
(assert (= a185 (+ a158 Ext_Mem_Acc_6_1)))
(assert (= a186 (+ a183 Ext_Mem_Acc_6_10)))
(assert (= a187 (+ a184 Ext_Mem_Acc_6_10)))
(assert (= a188 (+ a161 Ext_Mem_Acc_6_10)))
(assert (= a189 (+ a186 Ext_Mem_Acc_6_2)))
(assert (= a190 (+ a187 Ext_Mem_Acc_6_2)))
(assert (= a191 (+ a164 Ext_Mem_Acc_6_2)))
(assert (= a192 (+ a189 Ext_Mem_Acc_6_3)))
(assert (= a193 (+ a190 Ext_Mem_Acc_6_3)))
(assert (= a194 (+ a167 Ext_Mem_Acc_6_3)))
(assert (= a195 (+ a192 Ext_Mem_Acc_6_4)))
(assert (= a196 (+ a193 Ext_Mem_Acc_6_4)))
(assert (= a197 (+ a170 Ext_Mem_Acc_6_4)))
(assert (= a198 (+ a195 Ext_Mem_Acc_6_5)))
(assert (= a199 (+ a196 Ext_Mem_Acc_6_5)))
(assert (= a200 (+ a143 Ext_Mem_Acc_6_5)))
(assert (= a201 (+ a198 Ext_Mem_Acc_6_7)))
(assert (= a202 (+ a199 Ext_Mem_Acc_6_7)))
(assert (= a203 (+ a176 Ext_Mem_Acc_6_7)))
(assert (= a204 (+ a201 Ext_Mem_Acc_6_8)))
(assert (= a205 (+ a202 Ext_Mem_Acc_6_8)))
(assert (= a206 (+ a179 Ext_Mem_Acc_6_8)))
(assert (= a207 (+ a204 Ext_Mem_Acc_6_9)))
(assert (= a208 (+ a205 Ext_Mem_Acc_6_9)))
(assert (= a209 (+ a182 Ext_Mem_Acc_6_9)))
(assert (= a210 (+ a16 Ext_Mem_Acc_7_1)))
(assert (= a211 (+ a208 Ext_Mem_Acc_7_1)))
(assert (= a212 (+ a185 Ext_Mem_Acc_7_1)))
(assert (= a213 (+ a210 Ext_Mem_Acc_7_10)))
(assert (= a214 (+ a211 Ext_Mem_Acc_7_10)))
(assert (= a215 (+ a188 Ext_Mem_Acc_7_10)))
(assert (= a216 (+ a213 Ext_Mem_Acc_7_2)))
(assert (= a217 (+ a214 Ext_Mem_Acc_7_2)))
(assert (= a218 (+ a191 Ext_Mem_Acc_7_2)))
(assert (= a219 (+ a216 Ext_Mem_Acc_7_3)))
(assert (= a220 (+ a217 Ext_Mem_Acc_7_3)))
(assert (= a221 (+ a194 Ext_Mem_Acc_7_3)))
(assert (= a222 (+ a219 Ext_Mem_Acc_7_4)))
(assert (= a223 (+ a220 Ext_Mem_Acc_7_4)))
(assert (= a224 (+ a197 Ext_Mem_Acc_7_4)))
(assert (= a225 (+ a222 Ext_Mem_Acc_7_5)))
(assert (= a226 (+ a223 Ext_Mem_Acc_7_5)))
(assert (= a227 (+ a200 Ext_Mem_Acc_7_5)))
(assert (= a228 (+ a225 Ext_Mem_Acc_7_6)))
(assert (= a229 (+ a226 Ext_Mem_Acc_7_6)))
(assert (= a230 (+ a173 Ext_Mem_Acc_7_6)))
(assert (= a231 (+ a228 Ext_Mem_Acc_7_8)))
(assert (= a232 (+ a229 Ext_Mem_Acc_7_8)))
(assert (= a233 (+ a206 Ext_Mem_Acc_7_8)))
(assert (= a234 (+ a231 Ext_Mem_Acc_7_9)))
(assert (= a235 (+ a232 Ext_Mem_Acc_7_9)))
(assert (= a236 (+ a209 Ext_Mem_Acc_7_9)))
(assert (= a237 (+ a18 Ext_Mem_Acc_8_1)))
(assert (= a238 (+ a235 Ext_Mem_Acc_8_1)))
(assert (= a239 (+ a212 Ext_Mem_Acc_8_1)))
(assert (= a240 (+ a237 Ext_Mem_Acc_8_10)))
(assert (= a241 (+ a238 Ext_Mem_Acc_8_10)))
(assert (= a242 (+ a215 Ext_Mem_Acc_8_10)))
(assert (= a243 (+ a240 Ext_Mem_Acc_8_2)))
(assert (= a244 (+ a241 Ext_Mem_Acc_8_2)))
(assert (= a245 (+ a218 Ext_Mem_Acc_8_2)))
(assert (= a246 (+ a243 Ext_Mem_Acc_8_3)))
(assert (= a247 (+ a244 Ext_Mem_Acc_8_3)))
(assert (= a248 (+ a221 Ext_Mem_Acc_8_3)))
(assert (= a249 (+ a246 Ext_Mem_Acc_8_4)))
(assert (= a250 (+ a247 Ext_Mem_Acc_8_4)))
(assert (= a251 (+ a224 Ext_Mem_Acc_8_4)))
(assert (= a252 (+ a249 Ext_Mem_Acc_8_5)))
(assert (= a253 (+ a250 Ext_Mem_Acc_8_5)))
(assert (= a254 (+ a227 Ext_Mem_Acc_8_5)))
(assert (= a255 (+ a252 Ext_Mem_Acc_8_6)))
(assert (= a256 (+ a253 Ext_Mem_Acc_8_6)))
(assert (= a257 (+ a230 Ext_Mem_Acc_8_6)))
(assert (= a258 (+ a255 Ext_Mem_Acc_8_7)))
(assert (= a259 (+ a256 Ext_Mem_Acc_8_7)))
(assert (= a260 (+ a203 Ext_Mem_Acc_8_7)))
(assert (= a261 (+ a258 Ext_Mem_Acc_8_9)))
(assert (= a262 (+ a259 Ext_Mem_Acc_8_9)))
(assert (= a263 (+ a236 Ext_Mem_Acc_8_9)))
(assert (= a264 (+ a20 Ext_Mem_Acc_9_1)))
(assert (= a265 (+ a262 Ext_Mem_Acc_9_1)))
(assert (= a266 (+ a239 Ext_Mem_Acc_9_1)))
(assert (= a267 (+ a264 Ext_Mem_Acc_9_10)))
(assert (= a268 (+ a265 Ext_Mem_Acc_9_10)))
(assert (= a269 (+ a242 Ext_Mem_Acc_9_10)))
(assert (= a270 (+ a267 Ext_Mem_Acc_9_2)))
(assert (= a271 (+ a268 Ext_Mem_Acc_9_2)))
(assert (= a272 (+ a245 Ext_Mem_Acc_9_2)))
(assert (= a273 (+ a270 Ext_Mem_Acc_9_3)))
(assert (= a274 (+ a271 Ext_Mem_Acc_9_3)))
(assert (= a275 (+ a248 Ext_Mem_Acc_9_3)))
(assert (= a276 (+ a273 Ext_Mem_Acc_9_4)))
(assert (= a277 (+ a274 Ext_Mem_Acc_9_4)))
(assert (= a278 (+ a251 Ext_Mem_Acc_9_4)))
(assert (= a279 (+ a276 Ext_Mem_Acc_9_5)))
(assert (= a280 (+ a277 Ext_Mem_Acc_9_5)))
(assert (= a281 (+ a254 Ext_Mem_Acc_9_5)))
(assert (= a282 (+ a279 Ext_Mem_Acc_9_6)))
(assert (= a283 (+ a280 Ext_Mem_Acc_9_6)))
(assert (= a284 (+ a257 Ext_Mem_Acc_9_6)))
(assert (= a285 (+ a282 Ext_Mem_Acc_9_7)))
(assert (= a286 (+ a283 Ext_Mem_Acc_9_7)))
(assert (= a287 (+ a260 Ext_Mem_Acc_9_7)))
(assert (= a288 (+ a285 Ext_Mem_Acc_9_8)))
(assert (= a289 (+ a286 Ext_Mem_Acc_9_8)))
(assert (= a290 (+ a233 Ext_Mem_Acc_9_8)))
(assert (= a72 1))
(assert (= a45 1))
(assert (= a99 1))
(assert (= a126 1))
(assert (= a153 1))
(assert (= a180 1))
(assert (= a207 1))
(assert (= a234 1))
(assert (= a261 1))
(assert (= a288 1))
(assert (= a289 1))
(assert (= a266 1))
(assert (= a269 1))
(assert (= a272 1))
(assert (= a275 1))
(assert (= a278 1))
(assert (= a281 1))
(assert (= a284 1))
(assert (= a287 1))
(assert (= a290 1))
(assert (= a263 1))

(assert (<= (+ Memory_2 Memory_1 Memory_9 Memory_10 Memory_7 Memory_8 Memory_5 Memory_6 Memory_3 Memory_4) (+ Queue_6 Queue_5 Queue_4 Queue_3 Queue_2 Queue_1 Queue_10 Queue_9 Queue_8 Queue_7)))

(check-sat)
(exit)
